/*********************************************
 * OPL 12.6.1.0 Data
 * Author: Administrator
 * Creation Date: 2018-9-7 at обнГ6:27:11
 *********************************************/
Products={"Noodle","Bread","Cake"};
Resources={"flour","eggs"};
product=[<100,[0.5,0.2],0.6,0.8>,
         <200,[0.4,0.4],0.8,0.9>,
         <300,[0.3,0.6],0.3,0.4>];
capacity=[20,40];
